(declare-const x0 Bool)
(declare-const x1 Bool)
(declare-const x2 Bool)
(declare-const x3 Bool)
(declare-const x4 Bool)
(declare-const x5 Bool)
(declare-const x6 Bool)
(declare-const x7 Bool)
(declare-const x8 Bool)
(declare-const x9 Bool)
(declare-const x10 Bool)
(declare-const x11 Bool)
(declare-const x12 Bool)
(declare-const x13 Bool)
(declare-const x14 Bool)
(declare-const x15 Bool)
(declare-const x16 Bool)
(declare-const x17 Bool)
(declare-const x18 Bool)
(declare-const x19 Bool)
(declare-const x20 Bool)
(declare-const x21 Bool)
(declare-const x22 Bool)
(declare-const x23 Bool)
(declare-const x24 Bool)
(declare-const x25 Bool)
(declare-const x26 Bool)
(declare-const x27 Bool)
(declare-const x28 Bool)
(declare-const x29 Bool)
(declare-const x30 Bool)
(declare-const x31 Bool)
(declare-const x32 Bool)
(declare-const x33 Bool)
(declare-const x34 Bool)
(declare-const x35 Bool)
(declare-const x36 Bool)
(declare-const x37 Bool)
(declare-const x38 Bool)
(declare-const x39 Bool)
(declare-const x40 Bool)
(assert (or (or false (or true true)) true))
(assert (= (= x18 x21) (= x6 x27)))
(assert (or true (and (or (= false true) (= x3 x11)) (or (or x10 false) true))))
(assert (or (or x33 x30) (or x16 x24)))
(assert (and (and false true) (or false false)))
(assert (or x26 x26))
(assert (and true true))
(assert (and (= (and x11 (and false false)) (and (or true false) (or (and true (or false false)) (and false (or true x4))))) (and (or false true) (= (= (and (= false x25) (= true x15)) false) x22))))
(assert (= (or (= (= x3 false) (= (or x2 x8) x20)) (= x6 x40)) (and x16 x0)))
(assert (and false x35))
(check-sat)
